NAME: u574
COMMENT: Quick (5min) local search tour for u574 (43496.06345148999)
TYPE: TOUR
DIMENSION: 574
TOUR_SECTION: 1 574 569 568 570 567 566 565 564 4 3 2 48 49 50 51 52 53 47 46 45 44 54 55 57 56 80 81 41 42 43 40 39 38 37 36 11 10 9 8 7 558 6 5 563 562 561 557 556 560 559 555 549 548 543 541 542 540 539 538 537 535 533 527 526 534 504 505 503 502 501 500 499 498 497 496 495 494 493 486 487 488 489 453 452 451 455 454 456 490 492 491 435 436 440 437 438 439 429 430 431 432 433 434 441 445 444 447 443 442 448 446 420 419 421 422 423 424 428 427 426 425 418 417 416 415 414 413 412 357 358 356 355 354 353 363 364 352 351 348 349 350 367 368 369 347 346 345 370 375 374 373 379 269 333 334 335 336 337 342 341 340 338 339 372 371 344 343 332 270 266 267 268 378 380 381 382 385 383 384 386 390 387 388 389 265 264 273 272 313 314 315 316 317 318 320 319 324 325 326 323 321 322 271 331 330 327 328 329 274 275 276 277 279 281 309 312 310 311 300 301 302 307 183 182 181 180 179 178 177 176 175 168 169 170 171 172 173 174 285 306 305 296 295 294 293 288 287 286 290 289 292 291 297 298 299 303 304 308 282 283 284 188 187 186 185 184 210 211 233 232 209 208 238 207 197 196 195 194 193 191 190 192 189 280 278 263 262 260 261 391 392 393 394 406 407 377 376 366 365 362 361 360 359 411 410 408 409 405 404 403 402 400 401 449 450 399 398 397 395 256 255 257 259 258 396 461 462 463 460 458 459 457 468 469 467 470 471 473 472 485 484 483 482 481 480 479 478 477 515 474 476 475 466 465 464 254 252 253 251 250 198 199 200 201 249 248 202 203 204 205 206 239 240 236 237 235 234 231 228 229 230 223 224 225 227 226 241 242 243 244 245 246 247 519 518 517 516 514 513 507 506 508 509 510 512 511 520 521 522 523 524 525 528 531 532 530 529 536 544 545 547 546 550 551 552 553 554 12 13 14 15 16 222 221 220 21 17 18 20 19 32 33 34 35 31 30 28 29 87 88 89 90 91 92 93 94 95 161 162 163 160 159 158 157 156 153 154 155 164 165 25 26 27 23 24 22 219 218 217 216 212 215 214 213 166 167 152 150 149 146 147 148 151 145 140 141 142 143 144 137 136 135 134 133 132 131 127 128 130 129 64 65 66 67 68 69 70 126 125 124 138 139 96 97 98 123 119 118 114 113 112 111 121 120 122 99 100 101 102 103 104 106 105 107 108 109 110 85 86 84 83 82 79 62 63 61 76 115 117 116 71 72 73 74 75 77 78 60 59 58 571 572 573 -1
EOF